100
32
29
24
18
20
17
11
4
16
25
1
19
13
9
8
16
9
8
2
1
1
2
1
3
1
17
4
2
1
1
1
1
1
17
5
17
3
1
1
17
1
17
8
17
1
1
1
3
3
21
2
1
3
3
1
3
3
5
1
1
3
4
2
5
1
3
5
17
1
1
2
2
2
1
7
16
3
1
2
1
1
1
1
1
1
1
2
1
1
18
4
6
1
1
2
1
3
3
1
1
2